data/ng_25_150_8_3_35.dimacs
c PyNETGEN v1.0.0
c $ pip install pynetgen
c
c  NETGEN flow network generation algorithm
c  Problem input parameters
c  -------------------------------------
c   Random seed:          35
c   Number of nodes:      25
c   Source nodes:         8
c   Sink nodes:           3
c   Number of arcs:       150
c   Minimum arc cost:     10
c   Maximum arc cost:     99
c   Total supply:         1000
c   Transshipment -
c     Sources:            0
c     Sinks:              0
c   Skeleton arcs -
c     With max cost:      0
c     Capacitated:        100
c   Minimum arc capacity: 100
c   Maximum arc capacity: 1000
c
c  *** Minimum cost flow ***
c
p min 25 150
n 1 121
n 2 225
n 3 30
n 4 19
n 5 50
n 6 115
n 7 99
n 8 341
n 23 -503
n 24 -167
n 25 -330
a 1 16 0 121 75
a 1 14 0 365 94
a 1 15 0 214 71
a 1 24 0 991 53
a 1 12 0 407 67
a 1 21 0 284 79
a 1 10 0 751 12
a 16 23 0 121 98
a 16 25 0 121 33
a 16 17 0 623 27
a 16 13 0 153 85
a 16 24 0 814 55
a 16 14 0 746 27
a 16 11 0 611 32
a 16 20 0 244 98
a 16 9 0 192 18
a 16 18 0 806 63
a 16 10 0 897 57
a 16 12 0 514 52
a 2 18 0 225 53
a 2 9 0 335 24
a 2 14 0 600 42
a 14 23 0 225 67
a 14 17 0 606 32
a 14 25 0 495 39
a 14 13 0 377 31
a 14 19 0 666 84
a 14 16 0 718 31
a 14 9 0 213 22
a 14 20 0 580 10
a 14 18 0 373 36
a 14 24 0 564 70
a 14 22 0 542 41
a 14 11 0 829 38
a 18 14 0 225 88
a 18 24 0 225 69
a 18 23 0 215 70
a 18 11 0 295 22
a 18 10 0 982 39
a 18 19 0 974 95
a 3 15 0 100 44
a 3 10 0 512 19
a 3 23 0 645 30
a 3 12 0 606 50
a 3 17 0 565 88
a 11 25 0 100 30
a 11 23 0 100 61
a 11 18 0 978 28
a 11 13 0 857 70
a 15 11 0 100 14
a 15 22 0 753 22
a 15 14 0 940 11
a 15 24 0 153 84
a 15 9 0 164 77
a 15 10 0 533 31
a 15 16 0 871 20
a 4 21 0 100 27
a 4 24 0 980 76
a 4 20 0 632 88
a 4 16 0 286 50
a 21 25 0 100 42
a 21 24 0 100 49
a 21 17 0 782 90
a 21 18 0 208 39
a 5 19 0 100 31
a 5 14 0 171 27
a 5 23 0 487 39
a 5 18 0 532 50
a 5 17 0 799 88
a 5 12 0 789 87
a 5 13 0 676 74
a 5 21 0 970 12
a 5 11 0 293 92
a 5 16 0 862 59
a 12 25 0 100 40
a 12 23 0 100 75
a 12 14 0 396 68
a 12 20 0 147 58
a 12 18 0 532 31
a 12 10 0 458 18
a 12 9 0 426 24
a 12 15 0 276 41
a 12 19 0 762 77
a 12 17 0 319 89
a 19 12 0 100 50
a 19 20 0 715 88
a 19 24 0 524 90
a 19 16 0 320 49
a 19 13 0 332 92
a 19 11 0 208 68
a 19 10 0 146 20
a 19 15 0 803 36
a 19 9 0 452 89
a 6 20 0 115 61
a 6 22 0 613 72
a 6 16 0 111 78
a 6 19 0 615 44
a 20 24 0 115 14
a 20 23 0 115 98
a 20 25 0 896 79
a 20 15 0 923 98
a 20 19 0 355 16
a 20 16 0 612 41
a 20 21 0 163 58
a 20 9 0 837 67
a 7 22 0 100 19
a 7 18 0 925 98
a 7 16 0 859 76
a 7 23 0 684 81
a 10 25 0 100 17
a 10 18 0 643 86
a 10 20 0 263 34
a 10 9 0 817 59
a 10 15 0 515 92
a 10 11 0 813 82
a 22 10 0 100 28
a 22 23 0 100 49
a 22 17 0 920 65
a 22 21 0 689 12
a 22 15 0 138 71
a 22 9 0 221 55
a 22 16 0 945 99
a 22 11 0 477 26
a 22 13 0 169 69
a 22 12 0 528 87
a 22 19 0 663 63
a 22 18 0 607 11
a 22 20 0 298 98
a 8 17 0 341 76
a 8 11 0 271 22
a 8 14 0 114 24
a 8 9 0 149 77
a 8 16 0 670 83
a 8 12 0 827 38
a 8 19 0 250 12
a 8 24 0 157 95
a 9 13 0 341 87
a 9 25 0 341 81
a 9 10 0 476 15
a 9 15 0 150 88
a 9 12 0 291 59
a 9 20 0 194 99
a 13 23 0 341 87
a 13 24 0 257 21
a 17 9 0 341 81
a 17 21 0 609 42
a 17 20 0 838 15
a 17 14 0 137 31
a 17 15 0 961 20
a 17 24 0 315 77
