logs/ng_25_150_8_3_35.dimacs.log
┌ Info: [cmdline args]
│   args = Dict{String, Any}("l" => "logs/ng_25_150_8_3_35.dimacs.log", "i" => "data/ng_25_150_8_3_35.dimacs")
└ @ Main /Users/pmz/gitspace/ipm/main.jl:117
┌ Info: [mcfp]
│   onetw.G = Main.var"/Users/pmz/gitspace/ipm/graph.jl".Graphs.Graph(25, 150, [1 16; 1 14; 1 15; 1 24; 1 12; 1 21; 1 10; 16 23; 16 25; 16 17; 16 13; 16 24; 16 14; 16 11; 16 20; 16 9; 16 18; 16 10; 16 12; 2 18; 2 9; 2 14; 14 23; 14 17; 14 25; 14 13; 14 19; 14 16; 14 9; 14 20; 14 18; 14 24; 14 22; 14 11; 18 14; 18 24; 18 23; 18 11; 18 10; 18 19; 3 15; 3 10; 3 23; 3 12; 3 17; 11 25; 11 23; 11 18; 11 13; 15 11; 15 22; 15 14; 15 24; 15 9; 15 10; 15 16; 4 21; 4 24; 4 20; 4 16; 21 25; 21 24; 21 17; 21 18; 5 19; 5 14; 5 23; 5 18; 5 17; 5 12; 5 13; 5 21; 5 11; 5 16; 12 25; 12 23; 12 14; 12 20; 12 18; 12 10; 12 9; 12 15; 12 19; 12 17; 19 12; 19 20; 19 24; 19 16; 19 13; 19 11; 19 10; 19 15; 19 9; 6 20; 6 22; 6 16; 6 19; 20 24; 20 23; 20 25; 20 15; 20 19; 20 16; 20 21; 20 9; 7 22; 7 18; 7 16; 7 23; 10 25; 10 18; 10 20; 10 9; 10 15; 10 11; 22 10; 22 23; 22 17; 22 21; 22 15; 22 9; 22 16; 22 11; 22 13; 22 12; 22 19; 22 18; 22 20; 8 17; 8 11; 8 14; 8 9; 8 16; 8 12; 8 19; 8 24; 9 13; 9 25; 9 10; 9 15; 9 12; 9 20; 13 23; 13 24; 17 9; 17 21; 17 20; 17 14; 17 15; 17 24], sparse([1, 16, 1, 14, 1, 15, 1, 24, 1, 12, 1, 21, 1, 10, 16, 23, 16, 25, 16, 17, 13, 16, 16, 24, 14, 16, 11, 16, 16, 20, 9, 16, 16, 18, 10, 16, 12, 16, 2, 18, 2, 9, 2, 14, 14, 23, 14, 17, 14, 25, 13, 14, 14, 19, 14, 16, 9, 14, 14, 20, 14, 18, 14, 24, 14, 22, 11, 14, 14, 18, 18, 24, 18, 23, 11, 18, 10, 18, 18, 19, 3, 15, 3, 10, 3, 23, 3, 12, 3, 17, 11, 25, 11, 23, 11, 18, 11, 13, 11, 15, 15, 22, 14, 15, 15, 24, 9, 15, 10, 15, 15, 16, 4, 21, 4, 24, 4, 20, 4, 16, 21, 25, 21, 24, 17, 21, 18, 21, 5, 19, 5, 14, 5, 23, 5, 18, 5, 17, 5, 12, 5, 13, 5, 21, 5, 11, 5, 16, 12, 25, 12, 23, 12, 14, 12, 20, 12, 18, 10, 12, 9, 12, 12, 15, 12, 19, 12, 17, 12, 19, 19, 20, 19, 24, 16, 19, 13, 19, 11, 19, 10, 19, 15, 19, 9, 19, 6, 20, 6, 22, 6, 16, 6, 19, 20, 24, 20, 23, 20, 25, 15, 20, 19, 20, 16, 20, 20, 21, 9, 20, 7, 22, 7, 18, 7, 16, 7, 23, 10, 25, 10, 18, 10, 20, 9, 10, 10, 15, 10, 11, 10, 22, 22, 23, 17, 22, 21, 22, 15, 22, 9, 22, 16, 22, 11, 22, 13, 22, 12, 22, 19, 22, 18, 22, 20, 22, 8, 17, 8, 11, 8, 14, 8, 9, 8, 16, 8, 12, 8, 19, 8, 24, 9, 13, 9, 25, 9, 10, 9, 15, 9, 12, 9, 20, 13, 23, 13, 24, 9, 17, 17, 21, 17, 20, 14, 17, 15, 17, 17, 24], [1, 1, 2, 2, 3, 3, 4, 4, 5, 5, 6, 6, 7, 7, 8, 8, 9, 9, 10, 10, 11, 11, 12, 12, 13, 13, 14, 14, 15, 15, 16, 16, 17, 17, 18, 18, 19, 19, 20, 20, 21, 21, 22, 22, 23, 23, 24, 24, 25, 25, 26, 26, 27, 27, 28, 28, 29, 29, 30, 30, 31, 31, 32, 32, 33, 33, 34, 34, 35, 35, 36, 36, 37, 37, 38, 38, 39, 39, 40, 40, 41, 41, 42, 42, 43, 43, 44, 44, 45, 45, 46, 46, 47, 47, 48, 48, 49, 49, 50, 50, 51, 51, 52, 52, 53, 53, 54, 54, 55, 55, 56, 56, 57, 57, 58, 58, 59, 59, 60, 60, 61, 61, 62, 62, 63, 63, 64, 64, 65, 65, 66, 66, 67, 67, 68, 68, 69, 69, 70, 70, 71, 71, 72, 72, 73, 73, 74, 74, 75, 75, 76, 76, 77, 77, 78, 78, 79, 79, 80, 80, 81, 81, 82, 82, 83, 83, 84, 84, 85, 85, 86, 86, 87, 87, 88, 88, 89, 89, 90, 90, 91, 91, 92, 92, 93, 93, 94, 94, 95, 95, 96, 96, 97, 97, 98, 98, 99, 99, 100, 100, 101, 101, 102, 102, 103, 103, 104, 104, 105, 105, 106, 106, 107, 107, 108, 108, 109, 109, 110, 110, 111, 111, 112, 112, 113, 113, 114, 114, 115, 115, 116, 116, 117, 117, 118, 118, 119, 119, 120, 120, 121, 121, 122, 122, 123, 123, 124, 124, 125, 125, 126, 126, 127, 127, 128, 128, 129, 129, 130, 130, 131, 131, 132, 132, 133, 133, 134, 134, 135, 135, 136, 136, 137, 137, 138, 138, 139, 139, 140, 140, 141, 141, 142, 142, 143, 143, 144, 144, 145, 145, 146, 146, 147, 147, 148, 148, 149, 149, 150, 150], [-1, 1, -1, 1, -1, 1, -1, 1, -1, 1, -1, 1, -1, 1, -1, 1, -1, 1, -1, 1, 1, -1, -1, 1, 1, -1, 1, -1, -1, 1, 1, -1, -1, 1, 1, -1, 1, -1, -1, 1, -1, 1, -1, 1, -1, 1, -1, 1, -1, 1, 1, -1, -1, 1, -1, 1, 1, -1, -1, 1, -1, 1, -1, 1, -1, 1, 1, -1, 1, -1, -1, 1, -1, 1, 1, -1, 1, -1, -1, 1, -1, 1, -1, 1, -1, 1, -1, 1, -1, 1, -1, 1, -1, 1, -1, 1, -1, 1, 1, -1, -1, 1, 1, -1, -1, 1, 1, -1, 1, -1, -1, 1, -1, 1, -1, 1, -1, 1, -1, 1, -1, 1, -1, 1, 1, -1, 1, -1, -1, 1, -1, 1, -1, 1, -1, 1, -1, 1, -1, 1, -1, 1, -1, 1, -1, 1, -1, 1, -1, 1, -1, 1, -1, 1, -1, 1, -1, 1, 1, -1, 1, -1, -1, 1, -1, 1, -1, 1, 1, -1, -1, 1, -1, 1, 1, -1, 1, -1, 1, -1, 1, -1, 1, -1, 1, -1, -1, 1, -1, 1, -1, 1, -1, 1, -1, 1, -1, 1, -1, 1, 1, -1, 1, -1, 1, -1, -1, 1, 1, -1, -1, 1, -1, 1, -1, 1, -1, 1, -1, 1, -1, 1, -1, 1, 1, -1, -1, 1, -1, 1, 1, -1, -1, 1, 1, -1, 1, -1, 1, -1, 1, -1, 1, -1, 1, -1, 1, -1, 1, -1, 1, -1, 1, -1, 1, -1, -1, 1, -1, 1, -1, 1, -1, 1, -1, 1, -1, 1, -1, 1, -1, 1, -1, 1, -1, 1, -1, 1, -1, 1, -1, 1, -1, 1, -1, 1, -1, 1, 1, -1, -1, 1, -1, 1, 1, -1, 1, -1, -1, 1], 25, 150), sparse([2, 8, 10, 12, 14, 15, 16, 17, 19, 20, 22, 1, 3, 9, 12, 15, 16, 18, 19, 22, 5, 8, 10, 14, 15, 16, 18, 19, 22, 1, 3, 5, 8, 9, 16, 19, 22, 5, 9, 11, 14, 16, 19, 22, 1, 2, 5, 8, 12, 15, 16, 17, 18, 1, 3, 9, 10, 12, 17, 19, 20, 22, 1, 4, 5, 6, 7, 8, 14, 15, 19, 20, 22, 3, 5, 8, 12, 14, 16, 21, 22, 2, 5, 7, 10, 11, 12, 14, 16, 21, 22, 5, 6, 8, 12, 14, 18, 20, 22, 4, 6, 9, 10, 12, 14, 16, 17, 19, 22, 1, 4, 5, 17, 20, 22, 6, 7, 14, 15, 3, 5, 7, 11, 12, 13, 14, 16, 18, 20, 22, 1, 4, 8, 13, 14, 15, 16, 17, 18, 19, 20, 21, 9, 10, 11, 12, 14, 16, 20, 21], [9, 9, 9, 9, 9, 9, 9, 9, 9, 9, 9, 10, 10, 10, 10, 10, 10, 10, 10, 10, 11, 11, 11, 11, 11, 11, 11, 11, 11, 12, 12, 12, 12, 12, 12, 12, 12, 13, 13, 13, 13, 13, 13, 13, 14, 14, 14, 14, 14, 14, 14, 14, 14, 15, 15, 15, 15, 15, 15, 15, 15, 15, 16, 16, 16, 16, 16, 16, 16, 16, 16, 16, 16, 17, 17, 17, 17, 17, 17, 17, 17, 18, 18, 18, 18, 18, 18, 18, 18, 18, 18, 19, 19, 19, 19, 19, 19, 19, 19, 20, 20, 20, 20, 20, 20, 20, 20, 20, 20, 21, 21, 21, 21, 21, 21, 22, 22, 22, 22, 23, 23, 23, 23, 23, 23, 23, 23, 23, 23, 23, 24, 24, 24, 24, 24, 24, 24, 24, 24, 24, 24, 24, 25, 25, 25, 25, 25, 25, 25, 25], [1, 1, 1, 1, 1, 1, 1, 1, 1, 1, 1, 1, 1, 1, 1, 1, 1, 1, 1, 1, 1, 1, 1, 1, 1, 1, 1, 1, 1, 1, 1, 1, 1, 1, 1, 1, 1, 1, 1, 1, 1, 1, 1, 1, 1, 1, 1, 1, 1, 1, 1, 1, 1, 1, 1, 1, 1, 1, 1, 1, 1, 1, 1, 1, 1, 1, 1, 1, 1, 1, 1, 1, 1, 1, 1, 1, 1, 1, 1, 1, 1, 1, 1, 1, 1, 1, 1, 1, 1, 1, 1, 1, 1, 1, 1, 1, 1, 1, 1, 1, 1, 1, 1, 1, 1, 1, 1, 1, 1, 1, 1, 1, 1, 1, 1, 1, 1, 1, 1, 1, 1, 1, 1, 1, 1, 1, 1, 1, 1, 1, 1, 1, 1, 1, 1, 1, 1, 1, 1, 1, 1, 1, 1, 1, 1, 1, 1, 1, 1, 1], 22, 25))
│   onetw.G.n = 25
│   onetw.G.m = 150
└ @ Main /Users/pmz/gitspace/ipm/main.jl:120
┌ Info: [mcfp]
│   onetw.Cost = [75, 94, 71, 53, 67, 79, 12, 98, 33, 27, 85, 55, 27, 32, 98, 18, 63, 57, 52, 53, 24, 42, 67, 32, 39, 31, 84, 31, 22, 10, 36, 70, 41, 38, 88, 69, 70, 22, 39, 95, 44, 19, 30, 50, 88, 30, 61, 28, 70, 14, 22, 11, 84, 77, 31, 20, 27, 76, 88, 50, 42, 49, 90, 39, 31, 27, 39, 50, 88, 87, 74, 12, 92, 59, 40, 75, 68, 58, 31, 18, 24, 41, 77, 89, 50, 88, 90, 49, 92, 68, 20, 36, 89, 61, 72, 78, 44, 14, 98, 79, 98, 16, 41, 58, 67, 19, 98, 76, 81, 17, 86, 34, 59, 92, 82, 28, 49, 65, 12, 71, 55, 99, 26, 69, 87, 63, 11, 98, 76, 22, 24, 77, 83, 38, 12, 95, 87, 81, 15, 88, 59, 99, 87, 21, 81, 42, 15, 31, 20, 77]
│   onetw.Cap = [121, 365, 214, 991, 407, 284, 751, 121, 121, 623, 153, 814, 746, 611, 244, 192, 806, 897, 514, 225, 335, 600, 225, 606, 495, 377, 666, 718, 213, 580, 373, 564, 542, 829, 225, 225, 215, 295, 982, 974, 100, 512, 645, 606, 565, 100, 100, 978, 857, 100, 753, 940, 153, 164, 533, 871, 100, 980, 632, 286, 100, 100, 782, 208, 100, 171, 487, 532, 799, 789, 676, 970, 293, 862, 100, 100, 396, 147, 532, 458, 426, 276, 762, 319, 100, 715, 524, 320, 332, 208, 146, 803, 452, 115, 613, 111, 615, 115, 115, 896, 923, 355, 612, 163, 837, 100, 925, 859, 684, 100, 643, 263, 817, 515, 813, 100, 100, 920, 689, 138, 221, 945, 477, 169, 528, 663, 607, 298, 341, 271, 114, 149, 670, 827, 250, 157, 341, 341, 476, 150, 291, 194, 341, 257, 341, 609, 838, 137, 961, 315]
│   onetw.Demand = [-121, -225, -30, -19, -50, -115, -99, -341, 0, 0, 0, 0, 0, 0, 0, 0, 0, 0, 0, 0, 0, 0, 503, 167, 330]
└ @ Main /Users/pmz/gitspace/ipm/main.jl:121
┌ Info: [mcfp]
│   netw.G = Main.var"/Users/pmz/gitspace/ipm/graph.jl".Graphs.Graph(26, 161, [1 16; 1 14; 1 15; 1 24; 1 12; 1 21; 1 10; 16 23; 16 25; 16 17; 16 13; 16 24; 16 14; 16 11; 16 20; 16 9; 16 18; 16 10; 16 12; 2 18; 2 9; 2 14; 14 23; 14 17; 14 25; 14 13; 14 19; 14 16; 14 9; 14 20; 14 18; 14 24; 14 22; 14 11; 18 14; 18 24; 18 23; 18 11; 18 10; 18 19; 3 15; 3 10; 3 23; 3 12; 3 17; 11 25; 11 23; 11 18; 11 13; 15 11; 15 22; 15 14; 15 24; 15 9; 15 10; 15 16; 4 21; 4 24; 4 20; 4 16; 21 25; 21 24; 21 17; 21 18; 5 19; 5 14; 5 23; 5 18; 5 17; 5 12; 5 13; 5 21; 5 11; 5 16; 12 25; 12 23; 12 14; 12 20; 12 18; 12 10; 12 9; 12 15; 12 19; 12 17; 19 12; 19 20; 19 24; 19 16; 19 13; 19 11; 19 10; 19 15; 19 9; 6 20; 6 22; 6 16; 6 19; 20 24; 20 23; 20 25; 20 15; 20 19; 20 16; 20 21; 20 9; 7 22; 7 18; 7 16; 7 23; 10 25; 10 18; 10 20; 10 9; 10 15; 10 11; 22 10; 22 23; 22 17; 22 21; 22 15; 22 9; 22 16; 22 11; 22 13; 22 12; 22 19; 22 18; 22 20; 8 17; 8 11; 8 14; 8 9; 8 16; 8 12; 8 19; 8 24; 9 13; 9 25; 9 10; 9 15; 9 12; 9 20; 13 23; 13 24; 17 9; 17 21; 17 20; 17 14; 17 15; 17 24; 1 26; 2 26; 3 26; 4 26; 5 26; 6 26; 7 26; 8 26; 26 23; 26 24; 26 25], sparse([1, 16, 1, 14, 1, 15, 1, 24, 1, 12, 1, 21, 1, 10, 16, 23, 16, 25, 16, 17, 13, 16, 16, 24, 14, 16, 11, 16, 16, 20, 9, 16, 16, 18, 10, 16, 12, 16, 2, 18, 2, 9, 2, 14, 14, 23, 14, 17, 14, 25, 13, 14, 14, 19, 14, 16, 9, 14, 14, 20, 14, 18, 14, 24, 14, 22, 11, 14, 14, 18, 18, 24, 18, 23, 11, 18, 10, 18, 18, 19, 3, 15, 3, 10, 3, 23, 3, 12, 3, 17, 11, 25, 11, 23, 11, 18, 11, 13, 11, 15, 15, 22, 14, 15, 15, 24, 9, 15, 10, 15, 15, 16, 4, 21, 4, 24, 4, 20, 4, 16, 21, 25, 21, 24, 17, 21, 18, 21, 5, 19, 5, 14, 5, 23, 5, 18, 5, 17, 5, 12, 5, 13, 5, 21, 5, 11, 5, 16, 12, 25, 12, 23, 12, 14, 12, 20, 12, 18, 10, 12, 9, 12, 12, 15, 12, 19, 12, 17, 12, 19, 19, 20, 19, 24, 16, 19, 13, 19, 11, 19, 10, 19, 15, 19, 9, 19, 6, 20, 6, 22, 6, 16, 6, 19, 20, 24, 20, 23, 20, 25, 15, 20, 19, 20, 16, 20, 20, 21, 9, 20, 7, 22, 7, 18, 7, 16, 7, 23, 10, 25, 10, 18, 10, 20, 9, 10, 10, 15, 10, 11, 10, 22, 22, 23, 17, 22, 21, 22, 15, 22, 9, 22, 16, 22, 11, 22, 13, 22, 12, 22, 19, 22, 18, 22, 20, 22, 8, 17, 8, 11, 8, 14, 8, 9, 8, 16, 8, 12, 8, 19, 8, 24, 9, 13, 9, 25, 9, 10, 9, 15, 9, 12, 9, 20, 13, 23, 13, 24, 9, 17, 17, 21, 17, 20, 14, 17, 15, 17, 17, 24, 1, 26, 2, 26, 3, 26, 4, 26, 5, 26, 6, 26, 7, 26, 8, 26, 23, 26, 24, 26, 25, 26], [1, 1, 2, 2, 3, 3, 4, 4, 5, 5, 6, 6, 7, 7, 8, 8, 9, 9, 10, 10, 11, 11, 12, 12, 13, 13, 14, 14, 15, 15, 16, 16, 17, 17, 18, 18, 19, 19, 20, 20, 21, 21, 22, 22, 23, 23, 24, 24, 25, 25, 26, 26, 27, 27, 28, 28, 29, 29, 30, 30, 31, 31, 32, 32, 33, 33, 34, 34, 35, 35, 36, 36, 37, 37, 38, 38, 39, 39, 40, 40, 41, 41, 42, 42, 43, 43, 44, 44, 45, 45, 46, 46, 47, 47, 48, 48, 49, 49, 50, 50, 51, 51, 52, 52, 53, 53, 54, 54, 55, 55, 56, 56, 57, 57, 58, 58, 59, 59, 60, 60, 61, 61, 62, 62, 63, 63, 64, 64, 65, 65, 66, 66, 67, 67, 68, 68, 69, 69, 70, 70, 71, 71, 72, 72, 73, 73, 74, 74, 75, 75, 76, 76, 77, 77, 78, 78, 79, 79, 80, 80, 81, 81, 82, 82, 83, 83, 84, 84, 85, 85, 86, 86, 87, 87, 88, 88, 89, 89, 90, 90, 91, 91, 92, 92, 93, 93, 94, 94, 95, 95, 96, 96, 97, 97, 98, 98, 99, 99, 100, 100, 101, 101, 102, 102, 103, 103, 104, 104, 105, 105, 106, 106, 107, 107, 108, 108, 109, 109, 110, 110, 111, 111, 112, 112, 113, 113, 114, 114, 115, 115, 116, 116, 117, 117, 118, 118, 119, 119, 120, 120, 121, 121, 122, 122, 123, 123, 124, 124, 125, 125, 126, 126, 127, 127, 128, 128, 129, 129, 130, 130, 131, 131, 132, 132, 133, 133, 134, 134, 135, 135, 136, 136, 137, 137, 138, 138, 139, 139, 140, 140, 141, 141, 142, 142, 143, 143, 144, 144, 145, 145, 146, 146, 147, 147, 148, 148, 149, 149, 150, 150, 151, 151, 152, 152, 153, 153, 154, 154, 155, 155, 156, 156, 157, 157, 158, 158, 159, 159, 160, 160, 161, 161], [-1, 1, -1, 1, -1, 1, -1, 1, -1, 1, -1, 1, -1, 1, -1, 1, -1, 1, -1, 1, 1, -1, -1, 1, 1, -1, 1, -1, -1, 1, 1, -1, -1, 1, 1, -1, 1, -1, -1, 1, -1, 1, -1, 1, -1, 1, -1, 1, -1, 1, 1, -1, -1, 1, -1, 1, 1, -1, -1, 1, -1, 1, -1, 1, -1, 1, 1, -1, 1, -1, -1, 1, -1, 1, 1, -1, 1, -1, -1, 1, -1, 1, -1, 1, -1, 1, -1, 1, -1, 1, -1, 1, -1, 1, -1, 1, -1, 1, 1, -1, -1, 1, 1, -1, -1, 1, 1, -1, 1, -1, -1, 1, -1, 1, -1, 1, -1, 1, -1, 1, -1, 1, -1, 1, 1, -1, 1, -1, -1, 1, -1, 1, -1, 1, -1, 1, -1, 1, -1, 1, -1, 1, -1, 1, -1, 1, -1, 1, -1, 1, -1, 1, -1, 1, -1, 1, -1, 1, 1, -1, 1, -1, -1, 1, -1, 1, -1, 1, 1, -1, -1, 1, -1, 1, 1, -1, 1, -1, 1, -1, 1, -1, 1, -1, 1, -1, -1, 1, -1, 1, -1, 1, -1, 1, -1, 1, -1, 1, -1, 1, 1, -1, 1, -1, 1, -1, -1, 1, 1, -1, -1, 1, -1, 1, -1, 1, -1, 1, -1, 1, -1, 1, -1, 1, 1, -1, -1, 1, -1, 1, 1, -1, -1, 1, 1, -1, 1, -1, 1, -1, 1, -1, 1, -1, 1, -1, 1, -1, 1, -1, 1, -1, 1, -1, 1, -1, -1, 1, -1, 1, -1, 1, -1, 1, -1, 1, -1, 1, -1, 1, -1, 1, -1, 1, -1, 1, -1, 1, -1, 1, -1, 1, -1, 1, -1, 1, -1, 1, 1, -1, -1, 1, -1, 1, 1, -1, 1, -1, -1, 1, -1, 1, -1, 1, -1, 1, -1, 1, -1, 1, -1, 1, -1, 1, -1, 1, 1, -1, 1, -1, 1, -1], 26, 161), sparse([2, 8, 10, 12, 14, 15, 16, 17, 19, 20, 22, 1, 3, 9, 12, 15, 16, 18, 19, 22, 5, 8, 10, 14, 15, 16, 18, 19, 22, 1, 3, 5, 8, 9, 16, 19, 22, 5, 9, 11, 14, 16, 19, 22, 1, 2, 5, 8, 12, 15, 16, 17, 18, 1, 3, 9, 10, 12, 17, 19, 20, 22, 1, 4, 5, 6, 7, 8, 14, 15, 19, 20, 22, 3, 5, 8, 12, 14, 16, 21, 22, 2, 5, 7, 10, 11, 12, 14, 16, 21, 22, 5, 6, 8, 12, 14, 18, 20, 22, 4, 6, 9, 10, 12, 14, 16, 17, 19, 22, 1, 4, 5, 17, 20, 22, 6, 7, 14, 15, 3, 5, 7, 11, 12, 13, 14, 16, 18, 20, 22, 26, 1, 4, 8, 13, 14, 15, 16, 17, 18, 19, 20, 21, 26, 9, 10, 11, 12, 14, 16, 20, 21, 26, 1, 2, 3, 4, 5, 6, 7, 8], [9, 9, 9, 9, 9, 9, 9, 9, 9, 9, 9, 10, 10, 10, 10, 10, 10, 10, 10, 10, 11, 11, 11, 11, 11, 11, 11, 11, 11, 12, 12, 12, 12, 12, 12, 12, 12, 13, 13, 13, 13, 13, 13, 13, 14, 14, 14, 14, 14, 14, 14, 14, 14, 15, 15, 15, 15, 15, 15, 15, 15, 15, 16, 16, 16, 16, 16, 16, 16, 16, 16, 16, 16, 17, 17, 17, 17, 17, 17, 17, 17, 18, 18, 18, 18, 18, 18, 18, 18, 18, 18, 19, 19, 19, 19, 19, 19, 19, 19, 20, 20, 20, 20, 20, 20, 20, 20, 20, 20, 21, 21, 21, 21, 21, 21, 22, 22, 22, 22, 23, 23, 23, 23, 23, 23, 23, 23, 23, 23, 23, 23, 24, 24, 24, 24, 24, 24, 24, 24, 24, 24, 24, 24, 24, 25, 25, 25, 25, 25, 25, 25, 25, 25, 26, 26, 26, 26, 26, 26, 26, 26], [1, 1, 1, 1, 1, 1, 1, 1, 1, 1, 1, 1, 1, 1, 1, 1, 1, 1, 1, 1, 1, 1, 1, 1, 1, 1, 1, 1, 1, 1, 1, 1, 1, 1, 1, 1, 1, 1, 1, 1, 1, 1, 1, 1, 1, 1, 1, 1, 1, 1, 1, 1, 1, 1, 1, 1, 1, 1, 1, 1, 1, 1, 1, 1, 1, 1, 1, 1, 1, 1, 1, 1, 1, 1, 1, 1, 1, 1, 1, 1, 1, 1, 1, 1, 1, 1, 1, 1, 1, 1, 1, 1, 1, 1, 1, 1, 1, 1, 1, 1, 1, 1, 1, 1, 1, 1, 1, 1, 1, 1, 1, 1, 1, 1, 1, 1, 1, 1, 1, 1, 1, 1, 1, 1, 1, 1, 1, 1, 1, 1, 1, 1, 1, 1, 1, 1, 1, 1, 1, 1, 1, 1, 1, 1, 1, 1, 1, 1, 1, 1, 1, 1, 1, 1, 1, 1, 1, 1, 1, 1, 1], 26, 26))
│   netw.G.n = 26
│   netw.G.m = 161
└ @ Main /Users/pmz/gitspace/ipm/main.jl:124
┌ Info: [mcfp]
│   netw.Cost = [75, 94, 71, 53, 67, 79, 12, 98, 33, 27, 85, 55, 27, 32, 98, 18, 63, 57, 52, 53, 24, 42, 67, 32, 39, 31, 84, 31, 22, 10, 36, 70, 41, 38, 88, 69, 70, 22, 39, 95, 44, 19, 30, 50, 88, 30, 61, 28, 70, 14, 22, 11, 84, 77, 31, 20, 27, 76, 88, 50, 42, 49, 90, 39, 31, 27, 39, 50, 88, 87, 74, 12, 92, 59, 40, 75, 68, 58, 31, 18, 24, 41, 77, 89, 50, 88, 90, 49, 92, 68, 20, 36, 89, 61, 72, 78, 44, 14, 98, 79, 98, 16, 41, 58, 67, 19, 98, 76, 81, 17, 86, 34, 59, 92, 82, 28, 49, 65, 12, 71, 55, 99, 26, 69, 87, 63, 11, 98, 76, 22, 24, 77, 83, 38, 12, 95, 87, 81, 15, 88, 59, 99, 87, 21, 81, 42, 15, 31, 20, 77, 8234, 8234, 8234, 8234, 8234, 8234, 8234, 8234, 8234, 8234, 8234]
│   netw.Cap = [121, 365, 214, 991, 407, 284, 751, 121, 121, 623, 153, 814, 746, 611, 244, 192, 806, 897, 514, 225, 335, 600, 225, 606, 495, 377, 666, 718, 213, 580, 373, 564, 542, 829, 225, 225, 215, 295, 982, 974, 100, 512, 645, 606, 565, 100, 100, 978, 857, 100, 753, 940, 153, 164, 533, 871, 100, 980, 632, 286, 100, 100, 782, 208, 100, 171, 487, 532, 799, 789, 676, 970, 293, 862, 100, 100, 396, 147, 532, 458, 426, 276, 762, 319, 100, 715, 524, 320, 332, 208, 146, 803, 452, 115, 613, 111, 615, 115, 115, 896, 923, 355, 612, 163, 837, 100, 925, 859, 684, 100, 643, 263, 817, 515, 813, 100, 100, 920, 689, 138, 221, 945, 477, 169, 528, 663, 607, 298, 341, 271, 114, 149, 670, 827, 250, 157, 341, 341, 476, 150, 291, 194, 341, 257, 341, 609, 838, 137, 961, 315, 121, 225, 30, 19, 50, 115, 99, 341, 503, 167, 330]
│   netw.Demand = [-121, -225, -30, -19, -50, -115, -99, -341, 0, 0, 0, 0, 0, 0, 0, 0, 0, 0, 0, 0, 0, 0, 503, 167, 330, 0]
└ @ Main /Users/pmz/gitspace/ipm/main.jl:125
┌ Info: [phase 1]
└ @ Main /Users/pmz/gitspace/ipm/main.jl:96
┌ Info: [iter]
│   t = 1
└ @ Main /Users/pmz/gitspace/ipm/main.jl:64
┌ Info: [iter]
│   mu = 21.929813664596274
│   norm(rd, Inf) = 0.1
│   norm(rp, Inf) = 1.0999999999999943
└ @ Main /Users/pmz/gitspace/ipm/main.jl:68
┌ Info: [iter]
│   del_mu = 0.020907830658753568
└ @ Main /Users/pmz/gitspace/ipm/main.jl:81
┌ Info: [iter]
│   t = 2
└ @ Main /Users/pmz/gitspace/ipm/main.jl:64
┌ Info: [iter]
│   mu = 21.90890583393752
│   norm(rd, Inf) = 0.09987683842092167
│   norm(rp, Inf) = 1.0953746849501158
└ @ Main /Users/pmz/gitspace/ipm/main.jl:68
┌ Info: [iter]
│   del_mu = 0.06702461571401841
└ @ Main /Users/pmz/gitspace/ipm/main.jl:81
┌ Info: [iter]
│   t = 3
└ @ Main /Users/pmz/gitspace/ipm/main.jl:64
┌ Info: [iter]
│   mu = 21.841881218223502
│   norm(rd, Inf) = 0.09950607338567546
│   norm(rp, Inf) = 0.8320114415741386
└ @ Main /Users/pmz/gitspace/ipm/main.jl:68
┌ Info: [iter]
│   del_mu = 20.749279983864096
└ @ Main /Users/pmz/gitspace/ipm/main.jl:81
┌ Info: [iter]
│   t = 4
└ @ Main /Users/pmz/gitspace/ipm/main.jl:64
┌ Info: [iter]
│   mu = 1.0926012343594074
│   norm(rd, Inf) = 0.00497751976874957
│   norm(rp, Inf) = 0.041567616251114714
└ @ Main /Users/pmz/gitspace/ipm/main.jl:68
┌ Info: [iter]
│   del_mu = 1.0379700275707486
└ @ Main /Users/pmz/gitspace/ipm/main.jl:81
┌ Info: [iter]
│   t = 5
└ @ Main /Users/pmz/gitspace/ipm/main.jl:64
┌ Info: [iter]
│   mu = 0.05463120678865864
│   norm(rd, Inf) = 0.0002488820814903381
│   norm(rp, Inf) = 0.002060733866244391
└ @ Main /Users/pmz/gitspace/ipm/main.jl:68
┌ Info: [iter]
│   del_mu = 0.051899588636078416
└ @ Main /Users/pmz/gitspace/ipm/main.jl:81
┌ Info: [iter]
│   t = 6
└ @ Main /Users/pmz/gitspace/ipm/main.jl:64
┌ Info: [iter]
│   mu = 0.0027316181525802227
│   norm(rd, Inf) = 1.2444369673240934e-5
│   norm(rp, Inf) = 0.00010389412091171835
└ @ Main /Users/pmz/gitspace/ipm/main.jl:68
┌ Info: [iter end]
│   optimal = true
│   niters = 5
└ @ Main /Users/pmz/gitspace/ipm/main.jl:85
┌ Info: [phase 2]
└ @ Main /Users/pmz/gitspace/ipm/main.jl:102
┌ Info: [iter]
│   t = 1
└ @ Main /Users/pmz/gitspace/ipm/main.jl:64
┌ Info: [iter]
│   mu = 0.0027316181525802227
│   norm(rd, Inf) = 8233.99998755563
│   norm(rp, Inf) = 0.00010389412091171835
└ @ Main /Users/pmz/gitspace/ipm/main.jl:68
┌ Info: [iter]
│   del_mu = -0.00015229341861865923
└ @ Main /Users/pmz/gitspace/ipm/main.jl:81
┌ Info: [iter]
│   t = 2
└ @ Main /Users/pmz/gitspace/ipm/main.jl:64
┌ Info: [iter]
│   mu = 0.002883911571198882
│   norm(rd, Inf) = 8233.99998755563
│   norm(rp, Inf) = 0.00011675099722197047
└ @ Main /Users/pmz/gitspace/ipm/main.jl:68
┌ Info: [iter]
│   del_mu = -0.0003984250048724293
└ @ Main /Users/pmz/gitspace/ipm/main.jl:81
┌ Info: [iter]
│   t = 3
└ @ Main /Users/pmz/gitspace/ipm/main.jl:64
┌ Info: [iter]
│   mu = 0.003282336576071311
│   norm(rd, Inf) = 8233.999987555628
│   norm(rp, Inf) = 0.00011506953256912311
└ @ Main /Users/pmz/gitspace/ipm/main.jl:68
┌ Info: [iter]
│   del_mu = -0.0018052955086121582
└ @ Main /Users/pmz/gitspace/ipm/main.jl:81
┌ Info: [iter]
│   t = 4
└ @ Main /Users/pmz/gitspace/ipm/main.jl:64
┌ Info: [iter]
│   mu = 0.005087632084683469
│   norm(rd, Inf) = 8233.999987555615
│   norm(rp, Inf) = 0.00014050620538830216
└ @ Main /Users/pmz/gitspace/ipm/main.jl:68
┌ Info: [iter]
│   del_mu = -0.003606183636802718
└ @ Main /Users/pmz/gitspace/ipm/main.jl:81
┌ Info: [iter]
│   t = 5
└ @ Main /Users/pmz/gitspace/ipm/main.jl:64
┌ Info: [iter]
│   mu = 0.008693815721486187
│   norm(rd, Inf) = 8233.999987555473
│   norm(rp, Inf) = 0.00017849302979877635
└ @ Main /Users/pmz/gitspace/ipm/main.jl:68
┌ Info: [iter]
│   del_mu = -0.0045143368967990784
└ @ Main /Users/pmz/gitspace/ipm/main.jl:81
┌ Info: [iter]
│   t = 6
└ @ Main /Users/pmz/gitspace/ipm/main.jl:64
┌ Info: [iter]
│   mu = 0.013208152618285266
│   norm(rd, Inf) = 8233.999987555108
│   norm(rp, Inf) = 0.00020137895390792693
└ @ Main /Users/pmz/gitspace/ipm/main.jl:68
┌ Info: [iter]
│   del_mu = -0.002853506648223208
└ @ Main /Users/pmz/gitspace/ipm/main.jl:81
┌ Info: [iter]
│   t = 7
└ @ Main /Users/pmz/gitspace/ipm/main.jl:64
┌ Info: [iter]
│   mu = 0.016061659266508474
│   norm(rd, Inf) = 8233.999987554711
│   norm(rp, Inf) = 0.00019196854779046646
└ @ Main /Users/pmz/gitspace/ipm/main.jl:68
┌ Info: [iter]
│   del_mu = -0.005371827240469133
└ @ Main /Users/pmz/gitspace/ipm/main.jl:81
┌ Info: [iter]
│   t = 8
└ @ Main /Users/pmz/gitspace/ipm/main.jl:64
┌ Info: [iter]
│   mu = 0.021433486506977607
│   norm(rd, Inf) = 8233.99998755374
│   norm(rp, Inf) = 0.00020842399757725616
└ @ Main /Users/pmz/gitspace/ipm/main.jl:68
┌ Info: [iter]
│   del_mu = -0.00277961723504256
└ @ Main /Users/pmz/gitspace/ipm/main.jl:81
┌ Info: [iter]
│   t = 9
└ @ Main /Users/pmz/gitspace/ipm/main.jl:64
┌ Info: [iter]
│   mu = 0.024213103742020167
│   norm(rd, Inf) = 8233.999987553098
│   norm(rp, Inf) = 0.0004459907851526168
└ @ Main /Users/pmz/gitspace/ipm/main.jl:68
┌ Info: [iter]
│   del_mu = -0.003017175945150233
└ @ Main /Users/pmz/gitspace/ipm/main.jl:81
┌ Info: [iter]
│   t = 10
└ @ Main /Users/pmz/gitspace/ipm/main.jl:64
┌ Info: [iter]
│   mu = 0.0272302796871704
│   norm(rd, Inf) = 8233.999987552354
│   norm(rp, Inf) = 0.0004226814217176411
└ @ Main /Users/pmz/gitspace/ipm/main.jl:68
┌ Info: [iter]
│   del_mu = -0.02987863081490274
└ @ Main /Users/pmz/gitspace/ipm/main.jl:81
┌ Info: [iter]
│   t = 11
└ @ Main /Users/pmz/gitspace/ipm/main.jl:64
┌ Info: [iter]
│   mu = 0.05710891050207314
│   norm(rd, Inf) = 8233.999987544055
│   norm(rp, Inf) = 0.00048207516105236436
└ @ Main /Users/pmz/gitspace/ipm/main.jl:68
┌ Info: [iter]
│   del_mu = -0.10439739844126172
└ @ Main /Users/pmz/gitspace/ipm/main.jl:81
┌ Info: [iter]
│   t = 12
└ @ Main /Users/pmz/gitspace/ipm/main.jl:64
┌ Info: [iter]
│   mu = 0.16150630894333487
│   norm(rd, Inf) = 8233.99998748154
│   norm(rp, Inf) = 0.0005034648614099524
└ @ Main /Users/pmz/gitspace/ipm/main.jl:68
┌ Info: [iter]
│   del_mu = -0.002319102294355252
└ @ Main /Users/pmz/gitspace/ipm/main.jl:81
┌ Info: [iter]
│   t = 13
└ @ Main /Users/pmz/gitspace/ipm/main.jl:64
┌ Info: [iter]
│   mu = 0.16382541123769012
│   norm(rd, Inf) = 8233.999987477535
│   norm(rp, Inf) = 0.00047541956143959396
└ @ Main /Users/pmz/gitspace/ipm/main.jl:68
┌ Info: [iter]
│   del_mu = -0.13287809150413205
└ @ Main /Users/pmz/gitspace/ipm/main.jl:81
┌ Info: [iter]
│   t = 14
└ @ Main /Users/pmz/gitspace/ipm/main.jl:64
┌ Info: [iter]
│   mu = 0.29670350274182217
│   norm(rd, Inf) = 8233.99998724585
│   norm(rp, Inf) = 0.0014102179621744426
└ @ Main /Users/pmz/gitspace/ipm/main.jl:68
┌ Info: [iter]
│   del_mu = -0.09159389772127957
└ @ Main /Users/pmz/gitspace/ipm/main.jl:81
┌ Info: [iter]
│   t = 15
└ @ Main /Users/pmz/gitspace/ipm/main.jl:64
┌ Info: [iter]
│   mu = 0.38829740046310174
│   norm(rd, Inf) = 8233.999986955465
│   norm(rp, Inf) = 0.0014393639575374095
└ @ Main /Users/pmz/gitspace/ipm/main.jl:68
┌ Info: [iter]
│   del_mu = -1.2217831077063006
└ @ Main /Users/pmz/gitspace/ipm/main.jl:81
┌ Info: [iter]
│   t = 16
└ @ Main /Users/pmz/gitspace/ipm/main.jl:64
┌ Info: [iter]
│   mu = 1.6100805081694023
│   norm(rd, Inf) = 8233.999981864983
│   norm(rp, Inf) = 0.0014420935143704128
└ @ Main /Users/pmz/gitspace/ipm/main.jl:68
┌ Info: [iter]
│   del_mu = -3.0627733365788803
└ @ Main /Users/pmz/gitspace/ipm/main.jl:81
┌ Info: [iter]
│   t = 17
└ @ Main /Users/pmz/gitspace/ipm/main.jl:64
┌ Info: [iter]
│   mu = 4.672853844748283
│   norm(rd, Inf) = 8233.999928791687
│   norm(rp, Inf) = 0.0013145455454264265
└ @ Main /Users/pmz/gitspace/ipm/main.jl:68
┌ Info: [iter]
│   del_mu = -0.11322517106473384
└ @ Main /Users/pmz/gitspace/ipm/main.jl:81
┌ Info: [iter]
│   t = 18
└ @ Main /Users/pmz/gitspace/ipm/main.jl:64
┌ Info: [iter]
│   mu = 4.786079015813017
│   norm(rd, Inf) = 8233.999923095065
│   norm(rp, Inf) = 0.001322061671185537
└ @ Main /Users/pmz/gitspace/ipm/main.jl:68
┌ Info: [iter]
│   del_mu = -3.4109828226634233
└ @ Main /Users/pmz/gitspace/ipm/main.jl:81
┌ Info: [iter]
│   t = 19
└ @ Main /Users/pmz/gitspace/ipm/main.jl:64
┌ Info: [iter]
│   mu = 8.19706183847644
│   norm(rd, Inf) = 8233.999747396856
│   norm(rp, Inf) = 0.0009250506646338863
└ @ Main /Users/pmz/gitspace/ipm/main.jl:68
┌ Info: [iter]
│   del_mu = -302.7504725797194
└ @ Main /Users/pmz/gitspace/ipm/main.jl:81
┌ Info: [iter]
│   t = 20
└ @ Main /Users/pmz/gitspace/ipm/main.jl:64
┌ Info: [iter]
│   mu = 310.94753441819586
│   norm(rd, Inf) = 8233.973035061208
│   norm(rp, Inf) = 0.001722670761243883
└ @ Main /Users/pmz/gitspace/ipm/main.jl:68
┌ Info: [iter]
│   del_mu = -2.335715121596951e6
└ @ Main /Users/pmz/gitspace/ipm/main.jl:81
┌ Info: [iter]
│   t = 21
└ @ Main /Users/pmz/gitspace/ipm/main.jl:64
┌ Info: [iter]
│   mu = 2.3360260691313692e6
│   norm(rd, Inf) = 411.69865175313316
│   norm(rp, Inf) = 0.007960522613867482
└ @ Main /Users/pmz/gitspace/ipm/main.jl:68
┌ Info: [iter]
│   del_mu = 2.1855197653941163e6
└ @ Main /Users/pmz/gitspace/ipm/main.jl:81
┌ Info: [iter]
│   t = 22
└ @ Main /Users/pmz/gitspace/ipm/main.jl:64
┌ Info: [iter]
│   mu = 150506.30373725313
│   norm(rd, Inf) = 26.52703246940655
│   norm(rp, Inf) = 0.0007356539240106486
└ @ Main /Users/pmz/gitspace/ipm/main.jl:68
┌ Info: [iter]
│   del_mu = 123572.21864015628
└ @ Main /Users/pmz/gitspace/ipm/main.jl:81
┌ Info: [iter]
│   t = 23
└ @ Main /Users/pmz/gitspace/ipm/main.jl:64
┌ Info: [iter]
│   mu = 26934.08509709685
│   norm(rd, Inf) = 4.404197080688391
│   norm(rp, Inf) = 0.00018567340615049943
└ @ Main /Users/pmz/gitspace/ipm/main.jl:68
┌ Info: [iter]
│   del_mu = 22424.19626469515
└ @ Main /Users/pmz/gitspace/ipm/main.jl:81
┌ Info: [iter]
│   t = 24
└ @ Main /Users/pmz/gitspace/ipm/main.jl:64
┌ Info: [iter]
│   mu = 4509.888832401701
│   norm(rd, Inf) = 1.443182658913429
│   norm(rp, Inf) = 8.189103107270057e-5
└ @ Main /Users/pmz/gitspace/ipm/main.jl:68
┌ Info: [iter]
│   del_mu = 3467.799189431872
└ @ Main /Users/pmz/gitspace/ipm/main.jl:81
┌ Info: [iter]
│   t = 25
└ @ Main /Users/pmz/gitspace/ipm/main.jl:64
┌ Info: [iter]
│   mu = 1042.0896429698284
│   norm(rd, Inf) = 0.1972877958778554
│   norm(rp, Inf) = 0.00012952745607464067
└ @ Main /Users/pmz/gitspace/ipm/main.jl:68
┌ Info: [iter]
│   del_mu = 554.0335580774645
└ @ Main /Users/pmz/gitspace/ipm/main.jl:81
┌ Info: [iter]
│   t = 26
└ @ Main /Users/pmz/gitspace/ipm/main.jl:64
┌ Info: [iter]
│   mu = 488.056084892364
│   norm(rd, Inf) = 0.049419501578086056
│   norm(rp, Inf) = 9.287199168284133e-5
└ @ Main /Users/pmz/gitspace/ipm/main.jl:68
┌ Info: [iter]
│   del_mu = 222.83165259843264
└ @ Main /Users/pmz/gitspace/ipm/main.jl:81
┌ Info: [iter]
│   t = 27
└ @ Main /Users/pmz/gitspace/ipm/main.jl:64
┌ Info: [iter]
│   mu = 265.2244322939314
│   norm(rd, Inf) = 0.02868729500914924
│   norm(rp, Inf) = 2.9485796300576794e-5
└ @ Main /Users/pmz/gitspace/ipm/main.jl:68
┌ Info: [iter]
│   del_mu = 154.60832362828006
└ @ Main /Users/pmz/gitspace/ipm/main.jl:81
┌ Info: [iter]
│   t = 28
└ @ Main /Users/pmz/gitspace/ipm/main.jl:64
┌ Info: [iter]
│   mu = 110.61610866565132
│   norm(rd, Inf) = 0.009130190248470171
│   norm(rp, Inf) = 6.922098061501458e-5
└ @ Main /Users/pmz/gitspace/ipm/main.jl:68
┌ Info: [iter]
│   del_mu = 79.91703282401215
└ @ Main /Users/pmz/gitspace/ipm/main.jl:81
┌ Info: [iter]
│   t = 29
└ @ Main /Users/pmz/gitspace/ipm/main.jl:64
┌ Info: [iter]
│   mu = 30.699075841639168
│   norm(rd, Inf) = 0.0017654230359767098
│   norm(rp, Inf) = 1.8759430231662932e-5
└ @ Main /Users/pmz/gitspace/ipm/main.jl:68
┌ Info: [iter]
│   del_mu = 21.197270562568015
└ @ Main /Users/pmz/gitspace/ipm/main.jl:81
┌ Info: [iter]
│   t = 30
└ @ Main /Users/pmz/gitspace/ipm/main.jl:64
┌ Info: [iter]
│   mu = 9.501805279071151
│   norm(rd, Inf) = 0.0006912481258041225
│   norm(rp, Inf) = 2.9535942027314466e-5
└ @ Main /Users/pmz/gitspace/ipm/main.jl:68
┌ Info: [iter]
│   del_mu = 8.525476763049879
└ @ Main /Users/pmz/gitspace/ipm/main.jl:81
┌ Info: [iter]
│   t = 31
└ @ Main /Users/pmz/gitspace/ipm/main.jl:64
┌ Info: [iter]
│   mu = 0.9763285160212732
│   norm(rd, Inf) = 4.730149339593481e-5
│   norm(rp, Inf) = 8.791278531816715e-5
└ @ Main /Users/pmz/gitspace/ipm/main.jl:68
┌ Info: [iter]
│   del_mu = 0.794767049756641
└ @ Main /Users/pmz/gitspace/ipm/main.jl:81
┌ Info: [iter]
│   t = 32
└ @ Main /Users/pmz/gitspace/ipm/main.jl:64
┌ Info: [iter]
│   mu = 0.18156146626463227
│   norm(rd, Inf) = 1.2204311133245938e-5
│   norm(rp, Inf) = 1.4987801129962008e-5
└ @ Main /Users/pmz/gitspace/ipm/main.jl:68
┌ Info: [iter]
│   del_mu = 0.17181412475734958
└ @ Main /Users/pmz/gitspace/ipm/main.jl:81
┌ Info: [iter]
│   t = 33
└ @ Main /Users/pmz/gitspace/ipm/main.jl:64
┌ Info: [iter]
│   mu = 0.00974734150728267
│   norm(rd, Inf) = 6.204063538461924e-7
│   norm(rp, Inf) = 3.1231032664891245e-5
└ @ Main /Users/pmz/gitspace/ipm/main.jl:68
┌ Info: [iter end]
│   optimal = true
│   niters = 32
└ @ Main /Users/pmz/gitspace/ipm/main.jl:85
┌ Info: [flow]
│   x = [8.325046907422628e-5, 5.272624761820243e-5, 8.682819263298547e-5, 51.997565291371906, 9.130397325341432e-5, 6.425011743800655e-5, 69.00208189277757, 0.00010257481431518345, 0.0007889578042935691, 0.0001453661315920676, 5.1012877846756785e-5, 0.00012698474739598962, 0.00010695001311768768, 7.89056296975532e-5, 3.936839136654607e-5, 8.327328489375987e-5, 5.357983864306558e-5, 5.357235466495235e-5, 7.210159088267502e-5, 0.00044879685238546994, 4.000592492283769, 220.99898910624293, 223.9924222028319, 0.00018237462067329912, 110.99759504568614, 0.0004298838611113765, 4.186604709593327e-5, 0.00019752354902465583, 9.77655976335107e-5, 0.007519103817838796, 0.00011278254126959519, 0.00011465673366002128, 0.00017131097385859884, 8.798625236896944e-5, 4.613829830884793e-5, 0.0001121686278698728, 0.000956345901282794, 0.00012969749555737922, 9.380329788926333e-5, 4.2074573503134865e-5, 5.014019746607263e-5, 6.240857205358139e-5, 29.99981655363638, 4.489461043274349e-5, 3.230319559528836e-5, 99.99971811185706, 99.99970287545881, 0.00024808890565788076, 9.61945283564432e-5, 0.0001370469631915487, 0.00027210930741347963, 0.00019322191610941048, 6.768055430531007e-5, 3.769795470141791e-5, 8.797771686247838e-5, 0.00021059257525144403, 18.998802154757115, 0.0007336688979701043, 7.105798542721988e-5, 0.000396319046840881, 18.998544004832336, 0.0005092512037524147, 5.426022829050129e-5, 0.000109413505812366, 4.81768309182663e-5, 6.672578986654382e-5, 49.99956211441331, 4.8937368151786924e-5, 3.53384027175403e-5, 3.412862836422873e-5, 4.8517855398353044e-5, 8.771452727275196e-5, 2.9942998931466983e-5, 4.896938781901632e-5, 0.003255164597983272, 0.00041124073816068644, 5.3654740338745805e-5, 7.044194769406198e-5, 0.00011135316535880154, 0.00015540271058345385, 8.258943679411573e-5, 0.00010541657169192589, 4.1498719846793774e-5, 4.686079905799839e-5, 0.00015225070998197776, 6.105874265825641e-5, 0.00010356775827089393, 0.0001646315667954536, 7.013710519911489e-5, 6.918839349150953e-5, 26.996959745525448, 0.00035917320332197727, 4.271958502019026e-5, 114.99198450447885, 0.007307367459937264, 0.00029143755644124147, 0.0004160928205115466, 114.99968417821776, 0.00010337508092093982, 8.910381881686532e-5, 4.5280052846438787e-5, 0.00010082280136151749, 0.00010538841982071475, 5.7442546058151275e-5, 4.227843397181853e-5, 98.99940362346895, 4.1682657553026485e-5, 6.339123859858077e-5, 0.00049051636923383, 99.9998384398248, 5.081506256011546e-5, 0.00017565283160322388, 5.5316224988690354e-5, 5.4305932249105104e-5, 5.042802809861733e-5, 7.952328194205062e-5, 99.00633338987535, 5.6037489821784254e-5, 0.00013196700219624121, 4.970781433545515e-5, 4.3857455628569715e-5, 3.890113320909332e-5, 8.001278400267655e-5, 5.954862577272138e-5, 4.193416949444418e-5, 4.119298653187855e-5, 0.0001547777739987202, 3.709238373108257e-5, 0.00012561372357586037, 199.99910343955275, 113.99938323919346, 6.549995279850232e-5, 0.00010234209932075567, 0.0037794273349877686, 26.997253758846984, 0.00019726640545666843, 8.00134090360497e-5, 0.00019072418512250822, 4.000671024546909, 6.547317952737552e-5, 0.00011748124154417464, 5.4666726899303534e-5, 0.00011481143136605207, 0.0007204968316645993, 3.585642874331344e-5, 7.235597969557821e-5, 0.0002113420564216254, 9.35504028684313e-5, 0.0001899580246161282, 7.509183940177162e-5, 6.090868664966775e-7, 8.356535531691413e-7, 4.159901052391114e-7, 3.9297216286279105e-7, 4.575800044878219e-7, 5.976897967123183e-7, 5.625864577124291e-7, 1.077389637417857e-6, 2.1092773296481e-6, 1.2002132541060265e-6, 1.639458518451244e-6]
└ @ Main /Users/pmz/gitspace/ipm/main.jl:134
┌ Info: [integral flow]
│   x = [0, 0, 0, 52, 0, 0, 69, 0, 0, 0, 0, 0, 0, 0, 0, 0, 0, 0, 0, 0, 4, 221, 224, 0, 111, 0, 0, 0, 0, 0, 0, 0, 0, 0, 0, 0, 0, 0, 0, 0, 0, 0, 30, 0, 0, 100, 100, 0, 0, 0, 0, 0, 0, 0, 0, 0, 19, 0, 0, 0, 19, 0, 0, 0, 0, 0, 50, 0, 0, 0, 0, 0, 0, 0, 0, 0, 0, 0, 0, 0, 0, 0, 0, 0, 0, 0, 0, 0, 0, 0, 27, 0, 0, 115, 0, 0, 0, 115, 0, 0, 0, 0, 0, 0, 0, 99, 0, 0, 0, 100, 0, 0, 0, 0, 0, 0, 99, 0, 0, 0, 0, 0, 0, 0, 0, 0, 0, 0, 0, 200, 114, 0, 0, 0, 27, 0, 0, 0, 4, 0, 0, 0, 0, 0, 0, 0, 0, 0, 0, 0, 0, 0, 0, 0, 0, 0, 0, 0, 0, 0, 0]
└ @ Main /Users/pmz/gitspace/ipm/main.jl:137
┌ Info: [integral flow]
│   ox = [0, 0, 0, 52, 0, 0, 69, 0, 0, 0, 0, 0, 0, 0, 0, 0, 0, 0, 0, 0, 4, 221, 224, 0, 111, 0, 0, 0, 0, 0, 0, 0, 0, 0, 0, 0, 0, 0, 0, 0, 0, 0, 30, 0, 0, 100, 100, 0, 0, 0, 0, 0, 0, 0, 0, 0, 19, 0, 0, 0, 19, 0, 0, 0, 0, 0, 50, 0, 0, 0, 0, 0, 0, 0, 0, 0, 0, 0, 0, 0, 0, 0, 0, 0, 0, 0, 0, 0, 0, 0, 27, 0, 0, 115, 0, 0, 0, 115, 0, 0, 0, 0, 0, 0, 0, 99, 0, 0, 0, 100, 0, 0, 0, 0, 0, 0, 99, 0, 0, 0, 0, 0, 0, 0, 0, 0, 0, 0, 0, 200, 114, 0, 0, 0, 27, 0, 0, 0, 4, 0, 0, 0, 0, 0, 0, 0, 0, 0, 0, 0]
└ @ Main /Users/pmz/gitspace/ipm/main.jl:140
